SAT
-68 97 60 66 -35 92 98 82 -58 -51 -10 31 54 -57 38 -16 55 -67 73 -99 -84 8 80 -26 88 52 -83 95 -56 48 32 -85 -17 76 29 6 -87 -78 -13 -64 -9 50 -23 -40 -33 94 -70 -100 -22 46 -74 -20 -3 43 -7 -77 90 -53 -59 -91 72 75 -34 96 -25 -27 19 -61 -12 -39 -28 42 -47 11 -81 45 -93 49 63 -5 1 -30 -69 89 -65 -37 4 -18 79 86 -62 71 15 -2 14 41 36 44 -24 -21 0
